p cnf 1840
-11 -161
-12 -58
-13 -61
-14 -64
-15 -67
-16 -70
-17 -188
-18 -194
-19 -200
-20 -206
-21 -212
-22 -236
-23 -255
-24 -273
-25 -283
-26 -302
-27 -321
-28 -339
-29 -349
-30 -368
-31 -387
-32 -405
-33 -415
-34 -434
-35 -453
-36 -471
-37 -481
-38 -500
-39 -519
-40 -537
-41 -547
-42 -586
-43 -592
-44 1
-44 -17
-1 17 44
-45 2
-45 -18
-2 18 45
-46 3
-46 -19
-3 19 46
-47 4
-47 -20
-4 20 47
-48 5
-48 -21
-5 21 48
-49 -44
-49 45
44 -45 49
-50 -44
-50 -49
44 49 50
-51 46
-51 50
-46 -50 51
-52 50
-52 -51
-50 51 52
-53 47
-53 52
-47 -52 53
-54 52
-54 -53
-52 53 54
-55 48
-55 54
-48 -54 55
-56 -11
-56 44
11 -44 56
-57 11
-57 12
-11 -12 57
-58 -56
-58 -57
56 57 58
-59 -11
-59 49
11 -49 59
-60 11
-60 13
-11 -13 60
-61 -59
-61 -60
59 60 61
-62 -11
-62 51
11 -51 62
-63 11
-63 14
-11 -14 63
-64 -62
-64 -63
62 63 64
-65 -11
-65 53
11 -53 65
-66 11
-66 15
-11 -15 66
-67 -65
-67 -66
65 66 67
-68 -11
-68 55
11 -55 68
-69 11
-69 16
-11 -16 69
-70 -68
-70 -69
68 69 70
-71 1
-71 -58
-1 58 71
-72 2
-72 -61
-2 61 72
-73 3
-73 -64
-3 64 73
-74 4
-74 -67
-4 67 74
-75 5
-75 -70
-5 70 75
-76 22
-76 -23
-22 23 76
-77 -24
-77 -25
24 25 77
-78 76
-78 77
-76 -77 78
-79 -22
-79 -23
22 23 79
-80 -24
-80 25
24 -25 80
-81 79
-81 80
-79 -80 81
-82 -78
-82 -81
78 81 82
-83 71
-83 -82
-71 82 83
-84 26
-84 -27
-26 27 84
-85 -28
-85 -29
28 29 85
-86 84
-86 85
-84 -85 86
-87 -26
-87 -27
26 27 87
-88 -28
-88 29
28 -29 88
-89 87
-89 88
-87 -88 89
-90 -86
-90 -89
86 89 90
-91 72
-91 -90
-72 90 91
-92 30
-92 -31
-30 31 92
-93 -32
-93 -33
32 33 93
-94 92
-94 93
-92 -93 94
-95 -30
-95 -31
30 31 95
-96 -32
-96 33
32 -33 96
-97 95
-97 96
-95 -96 97
-98 -94
-98 -97
94 97 98
-99 73
-99 -98
-73 98 99
-100 34
-100 -35
-34 35 100
-101 -36
-101 -37
36 37 101
-102 100
-102 101
-100 -101 102
-103 -34
-103 -35
34 35 103
-104 -36
-104 37
36 -37 104
-105 103
-105 104
-103 -104 105
-106 -102
-106 -105
102 105 106
-107 74
-107 -106
-74 106 107
-108 38
-108 -39
-38 39 108
-109 -40
-109 -41
40 41 109
-110 108
-110 109
-108 -109 110
-111 -38
-111 -39
38 39 111
-112 -40
-112 41
40 -41 112
-113 111
-113 112
-111 -112 113
-114 -110
-114 -113
110 113 114
-115 75
-115 -114
-75 114 115
-116 -83
-116 -91
83 91 116
-117 -99
-117 -107
99 107 117
-118 116
-118 117
-116 -117 118
-119 -115
-119 118
115 -118 119
-120 -22
-120 23
22 -23 120
-121 24
-121 -25
-24 25 121
-122 120
-122 121
-120 -121 122
-123 24
-123 25
-24 -25 123
-124 76
-124 123
-76 -123 124
-125 -122
-125 -124
122 124 125
-126 71
-126 -125
-71 125 126
-127 -26
-127 27
26 -27 127
-128 28
-128 -29
-28 29 128
-129 127
-129 128
-127 -128 129
-130 28
-130 29
-28 -29 130
-131 84
-131 130
-84 -130 131
-132 -129
-132 -131
129 131 132
-133 72
-133 -132
-72 132 133
-134 -30
-134 31
30 -31 134
-135 32
-135 -33
-32 33 135
-136 134
-136 135
-134 -135 136
-137 32
-137 33
-32 -33 137
-138 92
-138 137
-92 -137 138
-139 -136
-139 -138
136 138 139
-140 73
-140 -139
-73 139 140
-141 -34
-141 35
34 -35 141
-142 36
-142 -37
-36 37 142
-143 141
-143 142
-141 -142 143
-144 36
-144 37
-36 -37 144
-145 100
-145 144
-100 -144 145
-146 -143
-146 -145
143 145 146
-147 74
-147 -146
-74 146 147
-148 -38
-148 39
38 -39 148
-149 40
-149 -41
-40 41 149
-150 148
-150 149
-148 -149 150
-151 40
-151 41
-40 -41 151
-152 108
-152 151
-108 -151 152
-153 -150
-153 -152
150 152 153
-154 75
-154 -153
-75 153 154
-155 -126
-155 -133
126 133 155
-156 -140
-156 -147
140 147 156
-157 155
-157 156
-155 -156 157
-158 -154
-158 157
154 -157 158
-159 11
-159 158
-11 -158 159
-160 119
-160 159
-119 -159 160
-161 119
-161 -160
-119 160 161
-162 -17
-162 18
17 -18 162
-163 -17
-163 -162
17 162 163
-164 19
-164 163
-19 -163 164
-165 163
-165 -164
-163 164 165
-166 20
-166 165
-20 -165 166
-167 165
-167 -166
-165 166 167
-168 21
-168 167
-21 -167 168
-169 79
-169 123
-79 -123 169
-170 71
-170 169
-71 -169 170
-171 87
-171 130
-87 -130 171
-172 72
-172 171
-72 -171 172
-173 95
-173 137
-95 -137 173
-174 73
-174 173
-73 -173 174
-175 103
-175 144
-103 -144 175
-176 74
-176 175
-74 -175 176
-177 111
-177 151
-111 -151 177
-178 75
-178 177
-75 -177 178
-179 -170
-179 -172
170 172 179
-180 -174
-180 -176
174 176 180
-181 179
-181 180
-179 -180 181
-182 -178
-182 181
178 -181 182
-183 76
-183 121
-76 -121 183
-184 71
-184 183
-71 -183 184
-185 17
-185 -182
-17 182 185
-186 17
-186 -185
-17 185 186
-187 -184
-187 186
184 -186 187
-188 -184
-188 -187
184 187 188
-189 84
-189 128
-84 -128 189
-190 72
-190 189
-72 -189 190
-191 162
-191 -182
-162 182 191
-192 18
-192 -191
-18 191 192
-193 -190
-193 192
190 -192 193
-194 -190
-194 -193
190 193 194
-195 92
-195 135
-92 -135 195
-196 73
-196 195
-73 -195 196
-197 164
-197 -182
-164 182 197
-198 19
-198 -197
-19 197 198
-199 -196
-199 198
196 -198 199
-200 -196
-200 -199
196 199 200
-201 100
-201 142
-100 -142 201
-202 74
-202 201
-74 -201 202
-203 166
-203 -182
-166 182 203
-204 20
-204 -203
-20 203 204
-205 -202
-205 204
202 -204 205
-206 -202
-206 -205
202 205 206
-207 108
-207 149
-108 -149 207
-208 75
-208 207
-75 -207 208
-209 168
-209 -182
-168 182 209
-210 21
-210 -209
-21 209 210
-211 -208
-211 210
208 -210 211
-212 -208
-212 -211
208 211 212
-213 -17
-213 -18
17 18 213
-214 -19
-214 -20
19 20 214
-215 213
-215 214
-213 -214 215
-216 -21
-216 215
21 -215 216
-217 42
-217 43
-42 -43 217
-218 -23
-218 -79
23 79 218
-219 24
-219 79
-24 -79 219
-220 -24
-220 -218
24 218 220
-221 -219
-221 -220
219 220 221
-222 -6
-222 22
6 -22 222
-223 22
-223 -222
-22 222 223
-224 23
-224 -223
-23 223 224
-225 6
-225 -22
-6 22 225
-226 -23
-226 225
23 -225 226
-227 -120
-227 -226
120 226 227
-228 24
-228 224
-24 -224 228
-229 -24
-229 -227
24 227 229
-230 -228
-230 -229
228 229 230
-231 25
-231 -221
-25 221 231
-232 -25
-232 -230
25 230 232
-233 -231
-233 -232
231 232 233
-234 71
-234 -233
-71 233 234
-235 22
-235 -71
-22 71 235
-236 -234
-236 -235
234 235 236
-237 22
-237 216
-22 -216 237
-238 -23
-238 237
23 -237 238
-239 -120
-239 -238
120 238 239
-240 24
-240 76
-24 -76 240
-241 -24
-241 -239
24 239 241
-242 -240
-242 -241
240 241 242
-243 23
-243 -224
-23 224 243
-244 -22
-244 -217
22 217 244
-245 23
-245 244
-23 -244 245
-246 -76
-246 -245
76 245 246
-247 24
-247 -243
-24 243 247
-248 -24
-248 -246
24 246 248
-249 -247
-249 -248
247 248 249
-250 25
-250 -242
-25 242 250
-251 -25
-251 -249
25 249 251
-252 -250
-252 -251
250 251 252
-253 71
-253 -252
-71 252 253
-254 23
-254 -71
-23 71 254
-255 -253
-255 -254
253 254 255
-256 22
-256 -216
-22 216 256
-257 22
-257 23
-22 -23 257
-258 -23
-258 256
23 -256 258
-259 -257
-259 -258
257 258 259
-260 -23
-260 24
23 -24 260
-261 -24
-261 -259
24 259 261
-262 -260
-262 -261
260 261 262
-263 -22
-263 217
22 -217 263
-264 -22
-264 -263
22 263 264
-265 23
-265 -264
-23 264 265
-266 -24
-266 265
24 -265 266
-267 -247
-267 -266
247 266 267
-268 25
-268 -262
-25 262 268
-269 -25
-269 -267
25 267 269
-270 -268
-270 -269
268 269 270
-271 71
-271 -270
-71 270 271
-272 24
-272 -71
-24 71 272
-273 -271
-273 -272
271 272 273
-274 24
-274 -260
-24 260 274
-275 6
-275 22
-6 -22 275
-276 23
-276 275
-23 -275 276
-277 24
-277 276
-24 -276 277
-278 25
-278 -274
-25 274 278
-279 -25
-279 277
25 -277 279
-280 -278
-280 -279
278 279 280
-281 71
-281 -280
-71 280 281
-282 25
-282 -71
-25 71 282
-283 -281
-283 -282
281 282 283
-284 -27
-284 -87
27 87 284
-285 28
-285 87
-28 -87 285
-286 -28
-286 -284
28 284 286
-287 -285
-287 -286
285 286 287
-288 -7
-288 26
7 -26 288
-289 26
-289 -288
-26 288 289
-290 27
-290 -289
-27 289 290
-291 7
-291 -26
-7 26 291
-292 -27
-292 291
27 -291 292
-293 -127
-293 -292
127 292 293
-294 28
-294 290
-28 -290 294
-295 -28
-295 -293
28 293 295
-296 -294
-296 -295
294 295 296
-297 29
-297 -287
-29 287 297
-298 -29
-298 -296
29 296 298
-299 -297
-299 -298
297 298 299
-300 72
-300 -299
-72 299 300
-301 26
-301 -72
-26 72 301
-302 -300
-302 -301
300 301 302
-303 26
-303 216
-26 -216 303
-304 -27
-304 303
27 -303 304
-305 -127
-305 -304
127 304 305
-306 28
-306 84
-28 -84 306
-307 -28
-307 -305
28 305 307
-308 -306
-308 -307
306 307 308
-309 27
-309 -290
-27 290 309
-310 -26
-310 -217
26 217 310
-311 27
-311 310
-27 -310 311
-312 -84
-312 -311
84 311 312
-313 28
-313 -309
-28 309 313
-314 -28
-314 -312
28 312 314
-315 -313
-315 -314
313 314 315
-316 29
-316 -308
-29 308 316
-317 -29
-317 -315
29 315 317
-318 -316
-318 -317
316 317 318
-319 72
-319 -318
-72 318 319
-320 27
-320 -72
-27 72 320
-321 -319
-321 -320
319 320 321
-322 26
-322 -216
-26 216 322
-323 26
-323 27
-26 -27 323
-324 -27
-324 322
27 -322 324
-325 -323
-325 -324
323 324 325
-326 -27
-326 28
27 -28 326
-327 -28
-327 -325
28 325 327
-328 -326
-328 -327
326 327 328
-329 -26
-329 217
26 -217 329
-330 -26
-330 -329
26 329 330
-331 27
-331 -330
-27 330 331
-332 -28
-332 331
28 -331 332
-333 -313
-333 -332
313 332 333
-334 29
-334 -328
-29 328 334
-335 -29
-335 -333
29 333 335
-336 -334
-336 -335
334 335 336
-337 72
-337 -336
-72 336 337
-338 28
-338 -72
-28 72 338
-339 -337
-339 -338
337 338 339
-340 28
-340 -326
-28 326 340
-341 7
-341 26
-7 -26 341
-342 27
-342 341
-27 -341 342
-343 28
-343 342
-28 -342 343
-344 29
-344 -340
-29 340 344
-345 -29
-345 343
29 -343 345
-346 -344
-346 -345
344 345 346
-347 72
-347 -346
-72 346 347
-348 29
-348 -72
-29 72 348
-349 -347
-349 -348
347 348 349
-350 -31
-350 -95
31 95 350
-351 32
-351 95
-32 -95 351
-352 -32
-352 -350
32 350 352
-353 -351
-353 -352
351 352 353
-354 -8
-354 30
8 -30 354
-355 30
-355 -354
-30 354 355
-356 31
-356 -355
-31 355 356
-357 8
-357 -30
-8 30 357
-358 -31
-358 357
31 -357 358
-359 -134
-359 -358
134 358 359
-360 32
-360 356
-32 -356 360
-361 -32
-361 -359
32 359 361
-362 -360
-362 -361
360 361 362
-363 33
-363 -353
-33 353 363
-364 -33
-364 -362
33 362 364
-365 -363
-365 -364
363 364 365
-366 73
-366 -365
-73 365 366
-367 30
-367 -73
-30 73 367
-368 -366
-368 -367
366 367 368
-369 30
-369 216
-30 -216 369
-370 -31
-370 369
31 -369 370
-371 -134
-371 -370
134 370 371
-372 32
-372 92
-32 -92 372
-373 -32
-373 -371
32 371 373
-374 -372
-374 -373
372 373 374
-375 31
-375 -356
-31 356 375
-376 -30
-376 -217
30 217 376
-377 31
-377 376
-31 -376 377
-378 -92
-378 -377
92 377 378
-379 32
-379 -375
-32 375 379
-380 -32
-380 -378
32 378 380
-381 -379
-381 -380
379 380 381
-382 33
-382 -374
-33 374 382
-383 -33
-383 -381
33 381 383
-384 -382
-384 -383
382 383 384
-385 73
-385 -384
-73 384 385
-386 31
-386 -73
-31 73 386
-387 -385
-387 -386
385 386 387
-388 30
-388 -216
-30 216 388
-389 30
-389 31
-30 -31 389
-390 -31
-390 388
31 -388 390
-391 -389
-391 -390
389 390 391
-392 -31
-392 32
31 -32 392
-393 -32
-393 -391
32 391 393
-394 -392
-394 -393
392 393 394
-395 -30
-395 217
30 -217 395
-396 -30
-396 -395
30 395 396
-397 31
-397 -396
-31 396 397
-398 -32
-398 397
32 -397 398
-399 -379
-399 -398
379 398 399
-400 33
-400 -394
-33 394 400
-401 -33
-401 -399
33 399 401
-402 -400
-402 -401
400 401 402
-403 73
-403 -402
-73 402 403
-404 32
-404 -73
-32 73 404
-405 -403
-405 -404
403 404 405
-406 32
-406 -392
-32 392 406
-407 8
-407 30
-8 -30 407
-408 31
-408 407
-31 -407 408
-409 32
-409 408
-32 -408 409
-410 33
-410 -406
-33 406 410
-411 -33
-411 409
33 -409 411
-412 -410
-412 -411
410 411 412
-413 73
-413 -412
-73 412 413
-414 33
-414 -73
-33 73 414
-415 -413
-415 -414
413 414 415
-416 -35
-416 -103
35 103 416
-417 36
-417 103
-36 -103 417
-418 -36
-418 -416
36 416 418
-419 -417
-419 -418
417 418 419
-420 -9
-420 34
9 -34 420
-421 34
-421 -420
-34 420 421
-422 35
-422 -421
-35 421 422
-423 9
-423 -34
-9 34 423
-424 -35
-424 423
35 -423 424
-425 -141
-425 -424
141 424 425
-426 36
-426 422
-36 -422 426
-427 -36
-427 -425
36 425 427
-428 -426
-428 -427
426 427 428
-429 37
-429 -419
-37 419 429
-430 -37
-430 -428
37 428 430
-431 -429
-431 -430
429 430 431
-432 74
-432 -431
-74 431 432
-433 34
-433 -74
-34 74 433
-434 -432
-434 -433
432 433 434
-435 34
-435 216
-34 -216 435
-436 -35
-436 435
35 -435 436
-437 -141
-437 -436
141 436 437
-438 36
-438 100
-36 -100 438
-439 -36
-439 -437
36 437 439
-440 -438
-440 -439
438 439 440
-441 35
-441 -422
-35 422 441
-442 -34
-442 -217
34 217 442
-443 35
-443 442
-35 -442 443
-444 -100
-444 -443
100 443 444
-445 36
-445 -441
-36 441 445
-446 -36
-446 -444
36 444 446
-447 -445
-447 -446
445 446 447
-448 37
-448 -440
-37 440 448
-449 -37
-449 -447
37 447 449
-450 -448
-450 -449
448 449 450
-451 74
-451 -450
-74 450 451
-452 35
-452 -74
-35 74 452
-453 -451
-453 -452
451 452 453
-454 34
-454 -216
-34 216 454
-455 34
-455 35
-34 -35 455
-456 -35
-456 454
35 -454 456
-457 -455
-457 -456
455 456 457
-458 -35
-458 36
35 -36 458
-459 -36
-459 -457
36 457 459
-460 -458
-460 -459
458 459 460
-461 -34
-461 217
34 -217 461
-462 -34
-462 -461
34 461 462
-463 35
-463 -462
-35 462 463
-464 -36
-464 463
36 -463 464
-465 -445
-465 -464
445 464 465
-466 37
-466 -460
-37 460 466
-467 -37
-467 -465
37 465 467
-468 -466
-468 -467
466 467 468
-469 74
-469 -468
-74 468 469
-470 36
-470 -74
-36 74 470
-471 -469
-471 -470
469 470 471
-472 36
-472 -458
-36 458 472
-473 9
-473 34
-9 -34 473
-474 35
-474 473
-35 -473 474
-475 36
-475 474
-36 -474 475
-476 37
-476 -472
-37 472 476
-477 -37
-477 475
37 -475 477
-478 -476
-478 -477
476 477 478
-479 74
-479 -478
-74 478 479
-480 37
-480 -74
-37 74 480
-481 -479
-481 -480
479 480 481
-482 -39
-482 -111
39 111 482
-483 40
-483 111
-40 -111 483
-484 -40
-484 -482
40 482 484
-485 -483
-485 -484
483 484 485
-486 -10
-486 38
10 -38 486
-487 38
-487 -486
-38 486 487
-488 39
-488 -487
-39 487 488
-489 10
-489 -38
-10 38 489
-490 -39
-490 489
39 -489 490
-491 -148
-491 -490
148 490 491
-492 40
-492 488
-40 -488 492
-493 -40
-493 -491
40 491 493
-494 -492
-494 -493
492 493 494
-495 41
-495 -485
-41 485 495
-496 -41
-496 -494
41 494 496
-497 -495
-497 -496
495 496 497
-498 75
-498 -497
-75 497 498
-499 38
-499 -75
-38 75 499
-500 -498
-500 -499
498 499 500
-501 38
-501 216
-38 -216 501
-502 -39
-502 501
39 -501 502
-503 -148
-503 -502
148 502 503
-504 40
-504 108
-40 -108 504
-505 -40
-505 -503
40 503 505
-506 -504
-506 -505
504 505 506
-507 39
-507 -488
-39 488 507
-508 -38
-508 -217
38 217 508
-509 39
-509 508
-39 -508 509
-510 -108
-510 -509
108 509 510
-511 40
-511 -507
-40 507 511
-512 -40
-512 -510
40 510 512
-513 -511
-513 -512
511 512 513
-514 41
-514 -506
-41 506 514
-515 -41
-515 -513
41 513 515
-516 -514
-516 -515
514 515 516
-517 75
-517 -516
-75 516 517
-518 39
-518 -75
-39 75 518
-519 -517
-519 -518
517 518 519
-520 38
-520 -216
-38 216 520
-521 38
-521 39
-38 -39 521
-522 -39
-522 520
39 -520 522
-523 -521
-523 -522
521 522 523
-524 -39
-524 40
39 -40 524
-525 -40
-525 -523
40 523 525
-526 -524
-526 -525
524 525 526
-527 -38
-527 217
38 -217 527
-528 -38
-528 -527
38 527 528
-529 39
-529 -528
-39 528 529
-530 -40
-530 529
40 -529 530
-531 -511
-531 -530
511 530 531
-532 41
-532 -526
-41 526 532
-533 -41
-533 -531
41 531 533
-534 -532
-534 -533
532 533 534
-535 75
-535 -534
-75 534 535
-536 40
-536 -75
-40 75 536
-537 -535
-537 -536
535 536 537
-538 40
-538 -524
-40 524 538
-539 10
-539 38
-10 -38 539
-540 39
-540 539
-39 -539 540
-541 40
-541 540
-40 -540 541
-542 41
-542 -538
-41 538 542
-543 -41
-543 541
41 -541 543
-544 -542
-544 -543
542 543 544
-545 75
-545 -544
-75 544 545
-546 41
-546 -75
-41 75 546
-547 -545
-547 -546
545 546 547
-548 77
-548 257
-77 -257 548
-549 71
-549 548
-71 -548 549
-550 85
-550 323
-85 -323 550
-551 72
-551 550
-72 -550 551
-552 93
-552 389
-93 -389 552
-553 73
-553 552
-73 -552 553
-554 101
-554 455
-101 -455 554
-555 74
-555 554
-74 -554 555
-556 109
-556 521
-109 -521 556
-557 75
-557 556
-75 -556 557
-558 -549
-558 -551
549 551 558
-559 -553
-559 -555
553 555 559
-560 558
-560 559
-558 -559 560
-561 -557
-561 560
557 -560 561
-562 80
-562 120
-80 -120 562
-563 71
-563 562
-71 -562 563
-564 88
-564 127
-88 -127 564
-565 72
-565 564
-72 -564 565
-566 96
-566 134
-96 -134 566
-567 73
-567 566
-73 -566 567
-568 104
-568 141
-104 -141 568
-569 74
-569 568
-74 -568 569
-570 112
-570 148
-112 -148 570
-571 75
-571 570
-75 -570 571
-572 -563
-572 -565
563 565 572
-573 -567
-573 -569
567 569 573
-574 572
-574 573
-572 -573 574
-575 -571
-575 574
571 -574 575
-576 -42
-576 43
42 -43 576
-577 42
-577 -43
-42 43 577
-578 -576
-578 -577
576 577 578
-579 -42
-579 -43
42 43 579
-580 -217
-580 -579
217 579 580
-581 -42
-581 -575
42 575 581
-582 42
-582 575
-42 -575 582
-583 -581
-583 -582
581 582 583
-584 -42
-584 -561
42 561 584
-585 561
-585 -583
-561 583 585
-586 -584
-586 -585
584 585 586
-587 -575
-587 -580
575 580 587
-588 43
-588 575
-43 -575 588
-589 -587
-589 -588
587 588 589
-590 -561
-590 -578
561 578 590
-591 561
-591 -589
-561 589 591
-592 -590
-592 -591
590 591 592
-593 121
-593 257
-121 -257 593
-594 -17
-594 593
17 -593 594
-595 128
-595 323
-128 -323 595
-596 -18
-596 595
18 -595 596
-597 135
-597 389
-135 -389 597
-598 -19
-598 597
19 -597 598
-599 142
-599 455
-142 -455 599
-600 -20
-600 599
20 -599 600
-601 149
-601 521
-149 -521 601
-602 -21
-602 601
21 -601 602
-603 594
-603 -596
-594 596 603
-604 -594
-604 596
594 -596 604
-605 -603
-605 -604
603 604 605
-606 594
-606 596
-594 -596 606
-607 -598
-607 -605
598 605 607
-608 598
-608 605
-598 -605 608
-609 -607
-609 -608
607 608 609
-610 598
-610 -605
-598 605 610
-611 606
-611 -610
-606 610 611
-612 -606
-612 610
606 -610 612
-613 -611
-613 -612
611 612 613
-614 606
-614 610
-606 -610 614
-615 -600
-615 -609
600 609 615
-616 600
-616 609
-600 -609 616
-617 -615
-617 -616
615 616 617
-618 600
-618 -609
-600 609 618
-619 -614
-619 -617
614 617 619
-620 614
-620 617
-614 -617 620
-621 -619
-621 -620
619 620 621
-622 614
-622 -617
-614 617 622
-623 -618
-623 -622
618 622 623
-624 -613
-624 623
613 -623 624
-625 613
-625 -623
-613 623 625
-626 -624
-626 -625
624 625 626
-627 -613
-627 -623
613 623 627
-628 -602
-628 -621
602 621 628
-629 602
-629 621
-602 -621 629
-630 -628
-630 -629
628 629 630
-631 602
-631 -621
-602 621 631
-632 -626
-632 -631
626 631 632
-633 626
-633 631
-626 -631 633
-634 -632
-634 -633
632 633 634
-635 -626
-635 631
626 -631 635
-636 627
-636 -635
-627 635 636
-637 -627
-637 635
627 -635 637
-638 -636
-638 -637
636 637 638
-639 627
-639 635
-627 -635 639
-640 -216
-640 -217
216 217 640
-641 217
-641 -561
-217 561 641
-642 -575
-642 579
575 -579 642
-643 638
-643 -641
-638 641 643
-644 -640
-644 -642
640 642 644
-645 643
-645 644
-643 -644 645
-645
